letting n_nurses=25
letting n_days=7
letting n_shift_types=4
letting max_covers=19
letting t_covers=87
letting covers=[19,4,0,0,3,0,16,0,13,0,3,0,17,3,0,0,1,5,0,0,3,0,0,0,0,0,0,0]
letting prefes=[3,1,3,2,1,1,4,1,1,1,4,1,1,1,4,1,1,1,4,1,3,1,3,2,3,1,3,2,3,3,3,3,1,4,4,1,1,4,4,1,1,4,4,1,1,4,4,1,3,3,3,3,3,3,3,3,2,3,1,3,1,4,4,1,1,4,4,1,1,4,4,1,1,4,4,1,2,3,1,3,2,3,1,3,2,1,3,3,1,4,4,1,1,4,4,1,1,4,4,1,1,4,4,1,2,1,3,3,2,1,3,3,3,3,1,3,1,4,1,1,1,4,1,1,1,4,1,1,1,4,1,1,3,3,1,3,3,3,1,3,3,3,3,2,4,4,4,4,4,4,4,4,4,4,4,4,4,4,4,4,3,3,3,2,3,3,3,2,3,1,3,3,1,1,4,1,1,1,4,1,1,1,4,1,1,1,4,1,3,1,3,3,3,1,3,3,3,3,3,3,4,4,4,4,4,4,4,4,4,4,4,4,4,4,4,4,3,3,3,3,3,3,3,3,3,1,3,3,1,1,1,1,1,1,1,1,1,1,1,1,1,1,1,1,3,1,3,3,3,1,3,3,3,3,3,3,1,4,4,1,1,4,4,1,1,4,4,1,1,4,4,1,3,3,3,3,3,3,3,3,3,3,3,3,4,4,4,4,4,4,4,4,4,4,4,4,4,4,4,4,3,3,3,3,3,3,3,3,3,3,3,3,1,4,4,1,1,4,4,1,1,4,4,1,1,4,4,1,3,3,3,3,3,3,3,3,2,3,3,3,4,4,4,4,4,4,4,4,4,4,4,4,4,4,4,4,2,3,3,3,2,3,3,3,3,3,3,3,1,1,4,1,1,1,4,1,1,1,4,1,1,1,4,1,3,3,3,3,3,3,3,3,3,3,1,3,1,4,4,1,1,4,4,1,1,4,4,1,1,4,4,1,3,3,1,3,3,3,1,3,3,3,3,3,4,4,4,4,4,4,4,4,4,4,4,4,4,4,4,4,3,3,3,3,3,3,3,3,3,3,3,3,1,4,1,1,1,4,1,1,1,4,1,1,1,4,1,1,3,3,3,3,3,3,3,3,2,3,3,3,1,4,4,1,1,4,4,1,1,4,4,1,1,4,4,1,2,3,3,3,2,3,3,3,3,3,3,2,1,4,1,1,1,4,1,1,1,4,1,1,1,4,1,1,3,3,3,2,3,3,3,2,3,3,3,2,1,4,4,1,1,4,4,1,1,4,4,1,1,4,4,1,3,3,3,2,3,3,3,2,2,1,3,2,1,4,4,1,1,4,4,1,1,4,4,1,1,4,4,1,2,1,3,2,2,1,3,2,3,3,1,3,1,4,1,1,1,4,1,1,1,4,1,1,1,4,1,1,3,3,1,3,3,3,1,3,3,3,3,3,1,1,4,1,1,1,4,1,1,1,4,1,1,1,4,1,3,3,3,3,3,3,3,3,3,3,1,3,1,4,4,1,1,4,4,1,1,4,4,1,1,4,4,1,3,3,1,3,3,3,1,3,3,3,3,3,1,4,4,1,1,4,4,1,1,4,4,1,1,4,4,1,3,3,3,3,3,3,3,3]
letting ub =  337
